(set-info :original "../out/aws_byte_cursor_read_u8_harness.c/aws_byte_cursor_read_u8_harnessc4fec.bc.txt")
(set-info :authors "SeaHorn v.10.0.0-rc0")
(declare-rel verifier.error (Bool Bool Bool ))
(declare-rel main@entry ())
(declare-rel main@verifier.error.split ())
(declare-var main@%_19_0 Int )
(declare-var main@%_20_0 Int )
(declare-var main@%_21_0 Bool )
(declare-var main@%.pmcpy.unpack.off.i_0 Int )
(declare-var main@%_14_0 Bool )
(declare-var main@%_15_0 Int )
(declare-var main@%_16_0 Int )
(declare-var main@%_17_0 Bool )
(declare-var main@%_12_0 Bool )
(declare-var main@%_1_0 Int )
(declare-var main@%_2_0 Bool )
(declare-var main@%_4_0 Int )
(declare-var main@%_5_0 Int )
(declare-var main@%_6_0 Bool )
(declare-var main@%malloc_0 Int )
(declare-var main@%_7_0 Bool )
(declare-var main@%_8_0 Int )
(declare-var main@%_9_0 Bool )
(declare-var main@entry_0 Bool )
(declare-var main@%sm_0 (Array Int Int) )
(declare-var main@%_0_0 Int )
(declare-var main@%.pmcpy.elt.i_0 Int )
(declare-var main@%.pmcpy.unpack.i_0 Int )
(declare-var main@%.pmcpy.elt1.i_0 Int )
(declare-var main@%.pmcpy.unpack2.i_0 Int )
(declare-var main@_10_0 Bool )
(declare-var main@_11_0 Bool )
(declare-var |tuple(main@entry_0, main@_11_0)| Bool )
(declare-var main@_13_0 Bool )
(declare-var main@_18_0 Bool )
(declare-var main@verifier.error_0 Bool )
(declare-var |tuple(main@_13_0, main@verifier.error_0)| Bool )
(declare-var |tuple(main@_11_0, main@verifier.error_0)| Bool )
(declare-var main@verifier.error.split_0 Bool )
(rule (verifier.error false false false))
(rule (verifier.error false true true))
(rule (verifier.error true false true))
(rule (verifier.error true true true))
(rule main@entry)
(rule (let ((a!1 (= main@%.pmcpy.elt.i_0 (+ (+ main@%_0_0 (* 0 8)) 0)))
      (a!2 (= main@%.pmcpy.elt1.i_0 (+ (+ main@%_0_0 (* 0 8)) 4)))
      (a!3 (=> main@_13_0
               (= main@%_14_0
                  (ite (>= main@%.pmcpy.unpack.off.i_0 0)
                       (< main@%.pmcpy.unpack.off.i_0 2147483645)
                       false))))
      (a!4 (=> main@_13_0 (= main@%_16_0 (+ main@%.pmcpy.unpack2.i_0 (* 1 1))))))
(let ((a!5 (and main@entry
                true
                (> main@%_0_0 0)
                (> main@%_1_0 0)
                (not main@%_2_0)
                (= main@%_5_0 main@%_0_0)
                (= main@%_6_0 (not (= main@%_4_0 0)))
                main@%_6_0
                (> main@%malloc_0 0)
                main@%_7_0
                true
                a!1
                (or (<= main@%_0_0 0) (> main@%.pmcpy.elt.i_0 0))
                (= main@%.pmcpy.unpack.i_0
                   (select main@%sm_0 main@%.pmcpy.elt.i_0))
                a!2
                (or (<= main@%_0_0 0) (> main@%.pmcpy.elt1.i_0 0))
                (> main@%_0_0 0)
                (= main@%.pmcpy.unpack2.i_0
                   (select main@%sm_0 main@%.pmcpy.elt1.i_0))
                (= main@%_8_0 main@%_1_0)
                (=> main@_10_0 (and main@_10_0 main@entry_0))
                (=> (and main@_10_0 main@entry_0) main@%_9_0)
                (=> |tuple(main@entry_0, main@_11_0)| main@entry_0)
                (=> main@_11_0
                    (or (and main@_11_0 main@_10_0)
                        |tuple(main@entry_0, main@_11_0)|))
                (=> |tuple(main@entry_0, main@_11_0)| (not main@%_9_0))
                (=> main@_13_0 (and main@_13_0 main@_11_0))
                (=> (and main@_13_0 main@_11_0) main@%_12_0)
                (=> main@_13_0
                    (= main@%.pmcpy.unpack.off.i_0
                       (+ main@%.pmcpy.unpack.i_0 (- 2))))
                a!3
                (=> main@_13_0 main@%_14_0)
                (=> main@_13_0 (> main@%_0_0 0))
                (=> main@_13_0
                    (= main@%_15_0 (select main@%sm_0 main@%.pmcpy.elt1.i_0)))
                a!4
                (=> main@_13_0
                    (or (<= main@%.pmcpy.unpack2.i_0 0) (> main@%_16_0 0)))
                (=> main@_13_0 (= main@%_17_0 (= main@%_15_0 main@%_16_0)))
                (=> main@_18_0 (and main@_18_0 main@_13_0))
                (=> (and main@_18_0 main@_13_0) main@%_17_0)
                (=> main@_18_0
                    (= main@%_19_0 (select main@%sm_0 main@%.pmcpy.elt.i_0)))
                (=> main@_18_0
                    (= main@%_20_0 (+ main@%.pmcpy.unpack.i_0 (- 1))))
                (=> main@_18_0 (= main@%_21_0 (= main@%_19_0 main@%_20_0)))
                (=> main@_18_0 (not main@%_21_0))
                (=> |tuple(main@_13_0, main@verifier.error_0)| main@_13_0)
                (=> |tuple(main@_11_0, main@verifier.error_0)| main@_11_0)
                (=> main@verifier.error_0
                    (or |tuple(main@_13_0, main@verifier.error_0)|
                        |tuple(main@_11_0, main@verifier.error_0)|
                        (and main@verifier.error_0 main@_18_0)))
                (=> |tuple(main@_13_0, main@verifier.error_0)|
                    (not main@%_17_0))
                (=> |tuple(main@_11_0, main@verifier.error_0)|
                    (not main@%_12_0))
                (=> main@verifier.error.split_0
                    (and main@verifier.error.split_0 main@verifier.error_0))
                main@verifier.error.split_0)))
  (=> a!5 main@verifier.error.split))))
(query main@verifier.error.split)

